10
1 7.9 0 0
2 8.5 10.0 202.0
3 6.1 12.0 150.0
4 4.0 120.0 150.0
5 2.4 120.0 150.0
6 5.2 60.0 802.0
7 2.4 90.0 130.0
8 3.0 70.0 140.0
9 2.2 160.0 170.0
10 3.5 110.0 118.0 
1 2 11.3
1 3 43.0
1 4 44.1
1 5 49.3
1 6 50.8
1 7 60.1
1 8 46.9
1 9 55.0
1 10 66.0
2 1 11.3
2 3 42.2
2 4 45.0
2 5 51.5
2 6 47.5
2 7 57.9
2 8 10.2
2 9 23.5
2 10 21.8
3 1 43.0
3 2 42.2
3 4 6.5
3 5 14.6
3 6 12.2
3 7 17.7
3 8 50.4
3 9 49.0
3 10 27.5
4 1 44.1
4 2 45.0
4 3 6.5
4 5 8.3
4 6 17.7
4 7 20.1
4 8 4.5
4 9 33.9
4 10 32.4
5 1 49.3
5 2 51.5
5 3 14.6
5 4 8.3
5 6 24.2
5 7 23.0
5 8 14.7
5 9 9.5
5 10 7.5
6 1 50.8
6 2 47.5
6 3 12.2
6 4 17.7
6 5 24.2
6 7 11.2
6 8 8.5
6 9 4.5
6 10 9.6
7 1 60.1
7 2 57.9
7 3 17.7
7 4 20.1
7 5 23.0
7 6 11.2
7 8 40.0
7 9 20.0
7 10 11.3
8 1 7.8
8 2 4.6
8 3 28.9
8 4 45.6
8 5 12.9
8 6 14.9
8 7 17.9
8 9 22.5
8 10 24.6
9 1 30.8
9 2 33.4
9 3 39.0
9 4 44.5
9 5 26.4
9 6 22.9
9 7 34.6
9 8 18.9
9 10 20.8
10 1 25.6
10 2 24.8
10 3 30.2
10 4 8.9
10 5 7.9
10 6 12.0
10 7 10.0
10 8 16.8
10 9 26.3